(set-info :smt-lib-version 2.6)
(set-logic UFLIA)
(set-info :source | Natarajan Shankar: PVS TCC |)
(set-info :category "industrial")
(set-info :status unsat)
(declare-sort Arr 0)
(declare-sort Key 0)
(declare-fun read (Arr Int) Key)
(declare-fun size (Arr) Int)
(declare-fun key (Key) Int)
(assert (not (forall ((?a Arr) (?i Int)) (let ((?v_0 (<= ?i (size ?a)))) (=> (and (>= ?i 0) ?v_0 (forall ((?j Int)) (let ((?v_1 (> ?j 0)) (?v_2 (<= ?j (size ?a)))) (=> (and ?v_1 ?v_2 (not (= ?i ?j))) (=> (and ?v_1 ?v_2) (<= (key (read ?a ?j)) (key (read ?a (- ?j 1)))))))) (=> (and (> ?i 0) ?v_0) (<= (key (read ?a ?i)) (key (read ?a (- ?i 1)))))) (forall ((?i Int)) (=> (and (> ?i 0) (<= ?i (size ?a))) (<= (key (read ?a ?i)) (key (read ?a (- ?i 1)))))))))))
(check-sat)
(exit)
